# Solution for model r3_t9_m2_3
# Finished Task: 5 / 9
# Makespan: 505.0, Total Distance: 216.0, Total Time: 0.2609
# R O S F
0 0 6 83.0 83.0
1 1 9 74.0 74.0
2 2 5 115.0 115.0
3 -1 -1 423.0 456.0
4 -1 -1 398.0 419.0
5 2 -1 153.0 181.0
6 0 11 345.0 373.0
7 1 -1 373.0 398.0
8 -1 -1 478.0 505.0
9 1 7 304.0 337.0
10 -1 -1 456.0 478.0
11 0 -1 481.0 505.0
